p cnf 960 2463
51 -2 -1 0
-51 2 0
-51 1 0
52 -51 -693 0
-52 51 0
-52 693 0
53 -694 -695 0
-53 694 0
-53 695 0
54 -53 -696 0
-54 53 0
-54 696 0
55 -697 -698 0
-55 697 0
-55 698 0
56 -699 -4 0
-56 699 0
-56 4 0
57 -56 -8 0
-57 56 0
-57 8 0
58 -700 -55 0
-58 700 0
-58 55 0
59 -10 -701 0
-59 10 0
-59 701 0
60 -59 -702 0
-60 59 0
-60 702 0
61 -703 -58 0
-61 703 0
-61 58 0
62 -704 -9 0
-62 704 0
-62 9 0
63 -62 -13 0
-63 62 0
-63 13 0
64 -705 -61 0
-64 705 0
-64 61 0
65 -706 -14 0
-65 706 0
-65 14 0
66 -65 -16 0
-66 65 0
-66 16 0
67 -707 -64 0
-67 707 0
-67 64 0
68 -708 -709 0
-68 708 0
-68 709 0
69 -68 -710 0
-69 68 0
-69 710 0
70 -711 -67 0
-70 711 0
-70 67 0
71 -712 -18 0
-71 712 0
-71 18 0
72 -71 -706 0
-72 71 0
-72 706 0
73 -713 -70 0
-73 713 0
-73 70 0
74 -714 -694 0
-74 714 0
-74 694 0
75 -74 -6 0
-75 74 0
-75 6 0
76 -715 -73 0
-76 715 0
-76 73 0
77 -21 -18 0
-77 21 0
-77 18 0
78 -77 -22 0
-78 77 0
-78 22 0
79 -716 -76 0
-79 716 0
-79 76 0
80 -717 -718 0
-80 717 0
-80 718 0
81 -80 -25 0
-81 80 0
-81 25 0
82 -719 -79 0
-82 719 0
-82 79 0
83 -720 -18 0
-83 720 0
-83 18 0
84 -83 -27 0
-84 83 0
-84 27 0
85 -721 -82 0
-85 721 0
-85 82 0
86 -28 -14 0
-86 28 0
-86 14 0
87 -86 -722 0
-87 86 0
-87 722 0
88 -723 -85 0
-88 723 0
-88 85 0
89 -30 -2 0
-89 30 0
-89 2 0
90 -89 -31 0
-90 89 0
-90 31 0
91 -724 -88 0
-91 724 0
-91 88 0
92 -8 -5 0
-92 8 0
-92 5 0
93 -92 -725 0
-93 92 0
-93 725 0
94 -726 -91 0
-94 726 0
-94 91 0
95 -23 -710 0
-95 23 0
-95 710 0
96 -95 -33 0
-96 95 0
-96 33 0
97 -727 -94 0
-97 727 0
-97 94 0
98 -21 -20 0
-98 21 0
-98 20 0
99 -98 -728 0
-99 98 0
-99 728 0
100 -729 -97 0
-100 729 0
-100 97 0
101 -35 -720 0
-101 35 0
-101 720 0
102 -101 -18 0
-102 101 0
-102 18 0
103 -730 -100 0
-103 730 0
-103 100 0
104 -704 -695 0
-104 704 0
-104 695 0
105 -104 -731 0
-105 104 0
-105 731 0
106 -732 -103 0
-106 732 0
-106 103 0
107 -36 -29 0
-107 36 0
-107 29 0
108 -107 -31 0
-108 107 0
-108 31 0
109 -733 -106 0
-109 733 0
-109 106 0
110 -734 -699 0
-110 734 0
-110 699 0
111 -110 -735 0
-111 110 0
-111 735 0
112 -736 -109 0
-112 736 0
-112 109 0
113 -737 -24 0
-113 737 0
-113 24 0
114 -113 -696 0
-114 113 0
-114 696 0
115 -738 -112 0
-115 738 0
-115 112 0
116 -739 -740 0
-116 739 0
-116 740 0
117 -116 -741 0
-117 116 0
-117 741 0
118 -742 -115 0
-118 742 0
-118 115 0
119 -743 -25 0
-119 743 0
-119 25 0
120 -119 -741 0
-120 119 0
-120 741 0
121 -744 -118 0
-121 744 0
-121 118 0
122 -739 -731 0
-122 739 0
-122 731 0
123 -122 -15 0
-123 122 0
-123 15 0
124 -745 -121 0
-124 745 0
-124 121 0
125 -746 -714 0
-125 746 0
-125 714 0
126 -125 -706 0
-126 125 0
-126 706 0
127 -747 -124 0
-127 747 0
-127 124 0
128 -748 -749 0
-128 748 0
-128 749 0
129 -128 -750 0
-129 128 0
-129 750 0
130 -751 -127 0
-130 751 0
-130 127 0
131 -752 -41 0
-131 752 0
-131 41 0
132 -131 -16 0
-132 131 0
-132 16 0
133 -753 -130 0
-133 753 0
-133 130 0
134 -728 -1 0
-134 728 0
-134 1 0
135 -134 -725 0
-135 134 0
-135 725 0
136 -754 -133 0
-136 754 0
-136 133 0
137 -9 -5 0
-137 9 0
-137 5 0
138 -137 -8 0
-138 137 0
-138 8 0
139 -755 -136 0
-139 755 0
-139 136 0
140 -756 -712 0
-140 756 0
-140 712 0
141 -140 -757 0
-141 140 0
-141 757 0
142 -758 -139 0
-142 758 0
-142 139 0
143 -44 -704 0
-143 44 0
-143 704 0
144 -143 -45 0
-144 143 0
-144 45 0
145 -759 -142 0
-145 759 0
-145 142 0
146 -29 -12 0
-146 29 0
-146 12 0
147 -146 -741 0
-147 146 0
-147 741 0
148 -760 -145 0
-148 760 0
-148 145 0
149 -761 -752 0
-149 761 0
-149 752 0
150 -149 -31 0
-150 149 0
-150 31 0
151 -762 -148 0
-151 762 0
-151 148 0
152 -728 -710 0
-152 728 0
-152 710 0
153 -152 -763 0
-153 152 0
-153 763 0
154 -764 -151 0
-154 764 0
-154 151 0
155 -33 -9 0
-155 33 0
-155 9 0
156 -155 -693 0
-156 155 0
-156 693 0
157 -765 -154 0
-157 765 0
-157 154 0
158 -45 -5 0
-158 45 0
-158 5 0
159 -158 -16 0
-159 158 0
-159 16 0
160 -766 -157 0
-160 766 0
-160 157 0
161 -761 -694 0
-161 761 0
-161 694 0
162 -161 -14 0
-162 161 0
-162 14 0
163 -767 -160 0
-163 767 0
-163 160 0
164 -740 -28 0
-164 740 0
-164 28 0
165 -164 -29 0
-165 164 0
-165 29 0
166 -768 -163 0
-166 768 0
-166 163 0
167 -35 -701 0
-167 35 0
-167 701 0
168 -167 -769 0
-168 167 0
-168 769 0
169 -770 -166 0
-169 770 0
-169 166 0
170 -771 -701 0
-170 771 0
-170 701 0
171 -170 -6 0
-171 170 0
-171 6 0
172 -772 -169 0
-172 772 0
-172 169 0
173 -42 -739 0
-173 42 0
-173 739 0
174 -173 -773 0
-174 173 0
-174 773 0
175 -774 -172 0
-175 774 0
-175 172 0
176 -775 -709 0
-176 775 0
-176 709 0
177 -176 -763 0
-177 176 0
-177 763 0
178 -776 -175 0
-178 776 0
-178 175 0
179 -40 -27 0
-179 40 0
-179 27 0
180 -179 -15 0
-180 179 0
-180 15 0
181 -777 -178 0
-181 777 0
-181 178 0
182 -44 -13 0
-182 44 0
-182 13 0
183 -182 -746 0
-183 182 0
-183 746 0
184 -778 -181 0
-184 778 0
-184 181 0
185 -176 -16 0
-185 176 0
-185 16 0
186 -779 -184 0
-186 779 0
-186 184 0
187 -36 -26 0
-187 36 0
-187 26 0
188 -187 -50 0
-188 187 0
-188 50 0
189 -780 -186 0
-189 780 0
-189 186 0
190 -781 -735 0
-190 781 0
-190 735 0
191 -190 -741 0
-191 190 0
-191 741 0
192 -782 -189 0
-192 782 0
-192 189 0
193 -29 -5 0
-193 29 0
-193 5 0
194 -193 -1 0
-194 193 0
-194 1 0
195 -783 -192 0
-195 783 0
-195 192 0
196 -739 -704 0
-196 739 0
-196 704 0
197 -196 -22 0
-197 196 0
-197 22 0
198 -784 -195 0
-198 784 0
-198 195 0
199 -761 -710 0
-199 761 0
-199 710 0
200 -199 -712 0
-200 199 0
-200 712 0
201 -785 -198 0
-201 785 0
-201 198 0
202 -786 -4 0
-202 786 0
-202 4 0
203 -202 -750 0
-203 202 0
-203 750 0
204 -787 -201 0
-204 787 0
-204 201 0
205 -13 -701 0
-205 13 0
-205 701 0
206 -205 -31 0
-206 205 0
-206 31 0
207 -788 -204 0
-207 788 0
-207 204 0
208 -35 -17 0
-208 35 0
-208 17 0
209 -208 -20 0
-209 208 0
-209 20 0
210 -789 -207 0
-210 789 0
-210 207 0
211 -775 -5 0
-211 775 0
-211 5 0
212 -211 -748 0
-212 211 0
-212 748 0
213 -790 -210 0
-213 790 0
-213 210 0
214 -30 -773 0
-214 30 0
-214 773 0
215 -214 -25 0
-215 214 0
-215 25 0
216 -791 -213 0
-216 791 0
-216 213 0
217 -775 -1 0
-217 775 0
-217 1 0
218 -217 -725 0
-218 217 0
-218 725 0
219 -792 -216 0
-219 792 0
-219 216 0
220 -43 -695 0
-220 43 0
-220 695 0
221 -220 -2 0
-221 220 0
-221 2 0
222 -793 -219 0
-222 793 0
-222 219 0
223 -761 -728 0
-223 761 0
-223 728 0
224 -223 -30 0
-224 223 0
-224 30 0
225 -794 -222 0
-225 794 0
-225 222 0
226 -20 -15 0
-226 20 0
-226 15 0
227 -226 -741 0
-227 226 0
-227 741 0
228 -795 -225 0
-228 795 0
-228 225 0
229 -775 -773 0
-229 775 0
-229 773 0
230 -229 -712 0
-230 229 0
-230 712 0
231 -796 -228 0
-231 796 0
-231 228 0
232 -38 -7 0
-232 38 0
-232 7 0
233 -232 -50 0
-233 232 0
-233 50 0
234 -797 -231 0
-234 797 0
-234 231 0
235 -42 -704 0
-235 42 0
-235 704 0
236 -235 -798 0
-236 235 0
-236 798 0
237 -799 -234 0
-237 799 0
-237 234 0
238 -35 -12 0
-238 35 0
-238 12 0
239 -238 -800 0
-239 238 0
-239 800 0
240 -801 -237 0
-240 801 0
-240 237 0
241 -17 -14 0
-241 17 0
-241 14 0
242 -241 -735 0
-242 241 0
-242 735 0
243 -802 -240 0
-243 802 0
-243 240 0
244 -743 -24 0
-244 743 0
-244 24 0
245 -244 -749 0
-245 244 0
-245 749 0
246 -803 -243 0
-246 803 0
-246 243 0
247 -34 -737 0
-247 34 0
-247 737 0
248 -247 -706 0
-248 247 0
-248 706 0
249 -804 -246 0
-249 804 0
-249 246 0
250 -36 -15 0
-250 36 0
-250 15 0
251 -250 -750 0
-251 250 0
-251 750 0
252 -805 -249 0
-252 805 0
-252 249 0
253 -743 -6 0
-253 743 0
-253 6 0
254 -253 -16 0
-254 253 0
-254 16 0
255 -806 -252 0
-255 806 0
-255 252 0
256 -43 -749 0
-256 43 0
-256 749 0
257 -256 -1 0
-257 256 0
-257 1 0
258 -807 -255 0
-258 807 0
-258 255 0
259 -737 -699 0
-259 737 0
-259 699 0
260 -259 -781 0
-260 259 0
-260 781 0
261 -808 -258 0
-261 808 0
-261 258 0
262 -34 -25 0
-262 34 0
-262 25 0
263 -262 -725 0
-263 262 0
-263 725 0
264 -809 -261 0
-264 809 0
-264 261 0
265 -743 -810 0
-265 743 0
-265 810 0
266 -265 -706 0
-266 265 0
-266 706 0
267 -811 -264 0
-267 811 0
-267 264 0
268 -740 -702 0
-268 740 0
-268 702 0
269 -268 -1 0
-269 268 0
-269 1 0
270 -812 -267 0
-270 812 0
-270 267 0
271 -46 -739 0
-271 46 0
-271 739 0
272 -271 -813 0
-272 271 0
-272 813 0
273 -814 -270 0
-273 814 0
-273 270 0
274 -815 -720 0
-274 815 0
-274 720 0
275 -274 -48 0
-275 274 0
-275 48 0
276 -816 -273 0
-276 816 0
-276 273 0
277 -718 -695 0
-277 718 0
-277 695 0
278 -277 -735 0
-278 277 0
-278 735 0
279 -817 -276 0
-279 817 0
-279 276 0
280 -771 -722 0
-280 771 0
-280 722 0
281 -280 -750 0
-281 280 0
-281 750 0
282 -818 -279 0
-282 818 0
-282 279 0
283 -49 -7 0
-283 49 0
-283 7 0
284 -283 -41 0
-284 283 0
-284 41 0
285 -819 -282 0
-285 819 0
-285 282 0
286 -47 -28 0
-286 47 0
-286 28 0
287 -286 -820 0
-287 286 0
-287 820 0
288 -821 -285 0
-288 821 0
-288 285 0
289 -798 -746 0
-289 798 0
-289 746 0
290 -289 -820 0
-290 289 0
-290 820 0
291 -822 -288 0
-291 822 0
-291 288 0
292 -289 -706 0
-292 289 0
-292 706 0
293 -823 -291 0
-293 823 0
-293 291 0
294 -740 -728 0
-294 740 0
-294 728 0
295 -294 -786 0
-295 294 0
-295 786 0
296 -824 -293 0
-296 824 0
-296 293 0
297 -737 -11 0
-297 737 0
-297 11 0
298 -297 -746 0
-298 297 0
-298 746 0
299 -825 -296 0
-299 825 0
-299 296 0
300 -42 -12 0
-300 42 0
-300 12 0
301 -300 -731 0
-301 300 0
-301 731 0
302 -826 -299 0
-302 826 0
-302 299 0
303 -701 -694 0
-303 701 0
-303 694 0
304 -303 -27 0
-304 303 0
-304 27 0
305 -827 -302 0
-305 827 0
-305 302 0
306 -701 -699 0
-306 701 0
-306 699 0
307 -306 -22 0
-307 306 0
-307 22 0
308 -828 -305 0
-308 828 0
-308 305 0
309 -709 -4 0
-309 709 0
-309 4 0
310 -309 -829 0
-310 309 0
-310 829 0
311 -830 -308 0
-311 830 0
-311 308 0
312 -752 -5 0
-312 752 0
-312 5 0
313 -312 -739 0
-313 312 0
-313 739 0
314 -831 -311 0
-314 831 0
-314 311 0
315 -49 -18 0
-315 49 0
-315 18 0
316 -315 -712 0
-316 315 0
-316 712 0
317 -832 -314 0
-317 832 0
-317 314 0
318 -734 -728 0
-318 734 0
-318 728 0
319 -318 -50 0
-319 318 0
-319 50 0
320 -833 -317 0
-320 833 0
-320 317 0
321 -718 -19 0
-321 718 0
-321 19 0
322 -321 -32 0
-322 321 0
-322 32 0
323 -834 -320 0
-323 834 0
-323 320 0
324 -769 -36 0
-324 769 0
-324 36 0
325 -324 -39 0
-325 324 0
-325 39 0
326 -835 -323 0
-326 835 0
-326 323 0
327 -36 -735 0
-327 36 0
-327 735 0
328 -327 -15 0
-328 327 0
-328 15 0
329 -836 -326 0
-329 836 0
-329 326 0
330 -24 -9 0
-330 24 0
-330 9 0
331 -330 -820 0
-331 330 0
-331 820 0
332 -837 -329 0
-332 837 0
-332 329 0
333 -781 -38 0
-333 781 0
-333 38 0
334 -333 -1 0
-334 333 0
-334 1 0
335 -838 -332 0
-335 838 0
-335 332 0
336 -46 -810 0
-336 46 0
-336 810 0
337 -336 -829 0
-337 336 0
-337 829 0
338 -839 -335 0
-338 839 0
-338 335 0
339 -798 -749 0
-339 798 0
-339 749 0
340 -339 -757 0
-340 339 0
-340 757 0
341 -840 -338 0
-341 840 0
-341 338 0
342 -704 -696 0
-342 704 0
-342 696 0
343 -342 -725 0
-343 342 0
-343 725 0
344 -841 -341 0
-344 841 0
-344 341 0
345 -149 -2 0
-345 149 0
-345 2 0
346 -842 -344 0
-346 842 0
-346 344 0
347 -701 -7 0
-347 701 0
-347 7 0
348 -347 -39 0
-348 347 0
-348 39 0
349 -843 -346 0
-349 843 0
-349 346 0
350 -749 -4 0
-350 749 0
-350 4 0
351 -350 -693 0
-351 350 0
-351 693 0
352 -844 -349 0
-352 844 0
-352 349 0
353 -761 -749 0
-353 761 0
-353 749 0
354 -353 -722 0
-354 353 0
-354 722 0
355 -845 -352 0
-355 845 0
-355 352 0
356 -798 -14 0
-356 798 0
-356 14 0
357 -356 -820 0
-357 356 0
-357 820 0
358 -846 -355 0
-358 846 0
-358 355 0
359 -769 -17 0
-359 769 0
-359 17 0
360 -359 -36 0
-360 359 0
-360 36 0
361 -847 -358 0
-361 847 0
-361 358 0
362 -17 -11 0
-362 17 0
-362 11 0
363 -362 -694 0
-363 362 0
-363 694 0
364 -848 -361 0
-364 848 0
-364 361 0
365 -771 -5 0
-365 771 0
-365 5 0
366 -365 -741 0
-366 365 0
-366 741 0
367 -849 -364 0
-367 849 0
-367 364 0
368 -43 -3 0
-368 43 0
-368 3 0
369 -368 -16 0
-369 368 0
-369 16 0
370 -850 -367 0
-370 850 0
-370 367 0
371 -756 -13 0
-371 756 0
-371 13 0
372 -371 -693 0
-372 371 0
-372 693 0
373 -851 -370 0
-373 851 0
-373 370 0
374 -44 -737 0
-374 44 0
-374 737 0
375 -374 -43 0
-375 374 0
-375 43 0
376 -852 -373 0
-376 852 0
-376 373 0
377 -740 -695 0
-377 740 0
-377 695 0
378 -377 -8 0
-378 377 0
-378 8 0
379 -853 -376 0
-379 853 0
-379 376 0
380 -49 -9 0
-380 49 0
-380 9 0
381 -380 -39 0
-381 380 0
-381 39 0
382 -854 -379 0
-382 854 0
-382 379 0
383 -829 -699 0
-383 829 0
-383 699 0
384 -383 -14 0
-384 383 0
-384 14 0
385 -855 -382 0
-385 855 0
-385 382 0
386 -18 -694 0
-386 18 0
-386 694 0
387 -386 -1 0
-387 386 0
-387 1 0
388 -856 -385 0
-388 856 0
-388 385 0
389 -42 -829 0
-389 42 0
-389 829 0
390 -389 -43 0
-390 389 0
-390 43 0
391 -857 -388 0
-391 857 0
-391 388 0
392 -37 -15 0
-392 37 0
-392 15 0
393 -392 -16 0
-393 392 0
-393 16 0
394 -858 -391 0
-394 858 0
-394 391 0
395 -49 -26 0
-395 49 0
-395 26 0
396 -395 -773 0
-396 395 0
-396 773 0
397 -859 -394 0
-397 859 0
-397 394 0
398 -752 -17 0
-398 752 0
-398 17 0
399 -398 -48 0
-399 398 0
-399 48 0
400 -860 -397 0
-400 860 0
-400 397 0
401 -38 -36 0
-401 38 0
-401 36 0
402 -401 -746 0
-402 401 0
-402 746 0
403 -861 -400 0
-403 861 0
-403 400 0
404 -22 -694 0
-404 22 0
-404 694 0
405 -404 -748 0
-405 404 0
-405 748 0
406 -862 -403 0
-406 862 0
-406 403 0
407 -810 -775 0
-407 810 0
-407 775 0
408 -407 -731 0
-408 407 0
-408 731 0
409 -863 -406 0
-409 863 0
-409 406 0
410 -708 -731 0
-410 708 0
-410 731 0
411 -410 -800 0
-411 410 0
-411 800 0
412 -864 -409 0
-412 864 0
-412 409 0
413 -28 -24 0
-413 28 0
-413 24 0
414 -413 -741 0
-414 413 0
-414 741 0
415 -865 -412 0
-415 865 0
-415 412 0
416 -798 -710 0
-416 798 0
-416 710 0
417 -416 -15 0
-417 416 0
-417 15 0
418 -866 -415 0
-418 866 0
-418 415 0
419 -786 -27 0
-419 786 0
-419 27 0
420 -419 -798 0
-420 419 0
-420 798 0
421 -867 -418 0
-421 867 0
-421 418 0
422 -39 -37 0
-422 39 0
-422 37 0
423 -422 -746 0
-423 422 0
-423 746 0
424 -868 -421 0
-424 868 0
-424 421 0
425 -761 -746 0
-425 761 0
-425 746 0
426 -425 -813 0
-426 425 0
-426 813 0
427 -869 -424 0
-427 869 0
-427 424 0
428 -14 -4 0
-428 14 0
-428 4 0
429 -428 -722 0
-429 428 0
-429 722 0
430 -870 -427 0
-430 870 0
-430 427 0
431 -775 -7 0
-431 775 0
-431 7 0
432 -431 -739 0
-432 431 0
-432 739 0
433 -871 -430 0
-433 871 0
-433 430 0
434 -810 -749 0
-434 810 0
-434 749 0
435 -434 -1 0
-435 434 0
-435 1 0
436 -872 -433 0
-436 872 0
-436 433 0
437 -756 -17 0
-437 756 0
-437 17 0
438 -437 -3 0
-438 437 0
-438 3 0
439 -873 -436 0
-439 873 0
-439 436 0
440 -815 -775 0
-440 815 0
-440 775 0
441 -440 -7 0
-441 440 0
-441 7 0
442 -874 -439 0
-442 874 0
-442 439 0
443 -24 -704 0
-443 24 0
-443 704 0
444 -443 -757 0
-444 443 0
-444 757 0
445 -875 -442 0
-445 875 0
-445 442 0
446 -48 -14 0
-446 48 0
-446 14 0
447 -446 -706 0
-447 446 0
-447 706 0
448 -876 -445 0
-448 876 0
-448 445 0
449 -28 -26 0
-449 28 0
-449 26 0
450 -449 -12 0
-450 449 0
-450 12 0
451 -877 -448 0
-451 877 0
-451 448 0
452 -714 -708 0
-452 714 0
-452 708 0
453 -452 -725 0
-453 452 0
-453 725 0
454 -878 -451 0
-454 878 0
-454 451 0
455 -40 -29 0
-455 40 0
-455 29 0
456 -455 -31 0
-456 455 0
-456 31 0
457 -879 -454 0
-457 879 0
-457 454 0
458 -38 -734 0
-458 38 0
-458 734 0
459 -458 -694 0
-459 458 0
-459 694 0
460 -880 -457 0
-460 880 0
-460 457 0
461 -743 -10 0
-461 743 0
-461 10 0
462 -461 -43 0
-462 461 0
-462 43 0
463 -881 -460 0
-463 881 0
-463 460 0
464 -37 -18 0
-464 37 0
-464 18 0
465 -464 -44 0
-465 464 0
-465 44 0
466 -882 -463 0
-466 882 0
-466 463 0
467 -19 -701 0
-467 19 0
-467 701 0
468 -467 -813 0
-468 467 0
-468 813 0
469 -883 -466 0
-469 883 0
-469 466 0
470 -761 -18 0
-470 761 0
-470 18 0
471 -470 -1 0
-471 470 0
-471 1 0
472 -884 -469 0
-472 884 0
-472 469 0
473 -27 -23 0
-473 27 0
-473 23 0
474 -473 -693 0
-474 473 0
-474 693 0
475 -885 -472 0
-475 885 0
-475 472 0
476 -35 -34 0
-476 35 0
-476 34 0
477 -476 -50 0
-477 476 0
-477 50 0
478 -886 -475 0
-478 886 0
-478 475 0
479 -748 -6 0
-479 748 0
-479 6 0
480 -479 -3 0
-480 479 0
-480 3 0
481 -887 -478 0
-481 887 0
-481 478 0
482 -46 -45 0
-482 46 0
-482 45 0
483 -482 -15 0
-483 482 0
-483 15 0
484 -888 -481 0
-484 888 0
-484 481 0
485 -32 -720 0
-485 32 0
-485 720 0
486 -485 -16 0
-486 485 0
-486 16 0
487 -889 -484 0
-487 889 0
-487 484 0
488 -763 -718 0
-488 763 0
-488 718 0
489 -488 -735 0
-489 488 0
-489 735 0
490 -890 -487 0
-490 890 0
-490 487 0
491 -44 -30 0
-491 44 0
-491 30 0
492 -491 -15 0
-492 491 0
-492 15 0
493 -891 -490 0
-493 891 0
-493 490 0
494 -324 -694 0
-494 324 0
-494 694 0
495 -892 -493 0
-495 892 0
-495 493 0
496 -46 -25 0
-496 46 0
-496 25 0
497 -496 -2 0
-497 496 0
-497 2 0
498 -893 -495 0
-498 893 0
-498 495 0
499 -50 -717 0
-499 50 0
-499 717 0
500 -499 -820 0
-500 499 0
-500 820 0
501 -894 -498 0
-501 894 0
-501 498 0
502 -775 -714 0
-502 775 0
-502 714 0
503 -502 -813 0
-503 502 0
-503 813 0
504 -895 -501 0
-504 895 0
-504 501 0
505 -35 -829 0
-505 35 0
-505 829 0
506 -505 -800 0
-506 505 0
-506 800 0
507 -896 -504 0
-507 896 0
-507 504 0
508 -740 -714 0
-508 740 0
-508 714 0
509 -508 -14 0
-509 508 0
-509 14 0
510 -897 -507 0
-510 897 0
-510 507 0
511 -35 -24 0
-511 35 0
-511 24 0
512 -511 -743 0
-512 511 0
-512 743 0
513 -898 -510 0
-513 898 0
-513 510 0
514 -47 -704 0
-514 47 0
-514 704 0
515 -514 -798 0
-515 514 0
-515 798 0
516 -899 -513 0
-516 899 0
-516 513 0
517 -50 -701 0
-517 50 0
-517 701 0
518 -517 -15 0
-518 517 0
-518 15 0
519 -900 -516 0
-519 900 0
-519 516 0
520 -704 -5 0
-520 704 0
-520 5 0
521 -520 -15 0
-521 520 0
-521 15 0
522 -901 -519 0
-522 901 0
-522 519 0
523 -42 -18 0
-523 42 0
-523 18 0
524 -523 -706 0
-524 523 0
-524 706 0
525 -902 -522 0
-525 902 0
-525 522 0
526 -769 -42 0
-526 769 0
-526 42 0
527 -526 -756 0
-527 526 0
-527 756 0
528 -903 -525 0
-528 903 0
-528 525 0
529 -42 -737 0
-529 42 0
-529 737 0
530 -529 -704 0
-530 529 0
-530 704 0
531 -904 -528 0
-531 904 0
-531 528 0
532 -20 -702 0
-532 20 0
-532 702 0
533 -532 -717 0
-533 532 0
-533 717 0
534 -905 -531 0
-534 905 0
-534 531 0
535 -786 -781 0
-535 786 0
-535 781 0
536 -535 -43 0
-536 535 0
-536 43 0
537 -906 -534 0
-537 906 0
-537 534 0
538 -39 -734 0
-538 39 0
-538 734 0
539 -538 -829 0
-539 538 0
-539 829 0
540 -907 -537 0
-540 907 0
-540 537 0
541 -33 -15 0
-541 33 0
-541 15 0
542 -541 -741 0
-542 541 0
-542 741 0
543 -908 -540 0
-543 908 0
-543 540 0
544 -21 -710 0
-544 21 0
-544 710 0
545 -544 -25 0
-545 544 0
-545 25 0
546 -909 -543 0
-546 909 0
-546 543 0
547 -41 -743 0
-547 41 0
-547 743 0
548 -547 -43 0
-548 547 0
-548 43 0
549 -910 -546 0
-549 910 0
-549 546 0
550 -14 -10 0
-550 14 0
-550 10 0
551 -550 -743 0
-551 550 0
-551 743 0
552 -911 -549 0
-552 911 0
-552 549 0
553 -829 -701 0
-553 829 0
-553 701 0
554 -553 -725 0
-554 553 0
-554 725 0
555 -912 -552 0
-555 912 0
-555 552 0
556 -737 -17 0
-556 737 0
-556 17 0
557 -556 -16 0
-557 556 0
-557 16 0
558 -913 -555 0
-558 913 0
-558 555 0
559 -46 -714 0
-559 46 0
-559 714 0
560 -559 -775 0
-560 559 0
-560 775 0
561 -914 -558 0
-561 914 0
-561 558 0
562 -781 -750 0
-562 781 0
-562 750 0
563 -562 -32 0
-563 562 0
-563 32 0
564 -915 -561 0
-564 915 0
-564 561 0
565 -756 -695 0
-565 756 0
-565 695 0
566 -565 -696 0
-566 565 0
-566 696 0
567 -916 -564 0
-567 916 0
-567 564 0
568 -508 -10 0
-568 508 0
-568 10 0
569 -917 -567 0
-569 917 0
-569 567 0
570 -746 -704 0
-570 746 0
-570 704 0
571 -570 -15 0
-571 570 0
-571 15 0
572 -918 -569 0
-572 918 0
-572 569 0
573 -34 -14 0
-573 34 0
-573 14 0
574 -573 -6 0
-574 573 0
-574 6 0
575 -919 -572 0
-575 919 0
-575 572 0
576 -6 -5 0
-576 6 0
-576 5 0
577 -576 -44 0
-577 576 0
-577 44 0
578 -920 -575 0
-578 920 0
-578 575 0
579 -39 -708 0
-579 39 0
-579 708 0
580 -579 -800 0
-580 579 0
-580 800 0
581 -921 -578 0
-581 921 0
-581 578 0
582 -187 -798 0
-582 187 0
-582 798 0
583 -922 -581 0
-583 922 0
-583 581 0
584 -771 -714 0
-584 771 0
-584 714 0
585 -584 -28 0
-585 584 0
-585 28 0
586 -923 -583 0
-586 923 0
-586 583 0
587 -734 -712 0
-587 734 0
-587 712 0
588 -587 -43 0
-588 587 0
-588 43 0
589 -924 -586 0
-589 924 0
-589 586 0
590 -28 -10 0
-590 28 0
-590 10 0
591 -590 -45 0
-591 590 0
-591 45 0
592 -925 -589 0
-592 925 0
-592 589 0
593 -22 -14 0
-593 22 0
-593 14 0
594 -593 -31 0
-594 593 0
-594 31 0
595 -926 -592 0
-595 926 0
-595 592 0
596 -781 -7 0
-596 781 0
-596 7 0
597 -596 -757 0
-597 596 0
-597 757 0
598 -927 -595 0
-598 927 0
-598 595 0
599 -786 -720 0
-599 786 0
-599 720 0
600 -599 -19 0
-600 599 0
-600 19 0
601 -928 -598 0
-601 928 0
-601 598 0
602 -48 -26 0
-602 48 0
-602 26 0
603 -602 -47 0
-603 602 0
-603 47 0
604 -929 -601 0
-604 929 0
-604 601 0
605 -395 -22 0
-605 395 0
-605 22 0
606 -930 -604 0
-606 930 0
-606 604 0
607 -28 -7 0
-607 28 0
-607 7 0
608 -607 -722 0
-608 607 0
-608 722 0
609 -931 -606 0
-609 931 0
-609 606 0
610 -718 -696 0
-610 718 0
-610 696 0
611 -610 -29 0
-611 610 0
-611 29 0
612 -932 -609 0
-612 932 0
-612 609 0
613 -50 -829 0
-613 50 0
-613 829 0
614 -613 -13 0
-614 613 0
-614 13 0
615 -933 -612 0
-615 933 0
-615 612 0
616 -34 -33 0
-616 34 0
-616 33 0
617 -616 -16 0
-617 616 0
-617 16 0
618 -934 -615 0
-618 934 0
-618 615 0
619 -42 -5 0
-619 42 0
-619 5 0
620 -619 -8 0
-620 619 0
-620 8 0
621 -935 -618 0
-621 935 0
-621 618 0
622 -752 -720 0
-622 752 0
-622 720 0
623 -622 -748 0
-623 622 0
-623 748 0
624 -936 -621 0
-624 936 0
-624 621 0
625 -50 -712 0
-625 50 0
-625 712 0
626 -625 -1 0
-626 625 0
-626 1 0
627 -937 -624 0
-627 937 0
-627 624 0
628 -728 -22 0
-628 728 0
-628 22 0
629 -628 -3 0
-629 628 0
-629 3 0
630 -938 -627 0
-630 938 0
-630 627 0
631 -342 -8 0
-631 342 0
-631 8 0
632 -939 -630 0
-632 939 0
-632 630 0
633 -42 -708 0
-633 42 0
-633 708 0
634 -633 -718 0
-634 633 0
-634 718 0
635 -940 -632 0
-635 940 0
-635 632 0
636 -47 -39 0
-636 47 0
-636 39 0
637 -636 -25 0
-637 636 0
-637 25 0
638 -941 -635 0
-638 941 0
-638 635 0
639 -752 -731 0
-639 752 0
-639 731 0
640 -639 -16 0
-640 639 0
-640 16 0
641 -942 -638 0
-641 942 0
-641 638 0
642 -34 -696 0
-642 34 0
-642 696 0
643 -642 -31 0
-643 642 0
-643 31 0
644 -943 -641 0
-644 943 0
-644 641 0
645 -46 -735 0
-645 46 0
-645 735 0
646 -645 -725 0
-646 645 0
-646 725 0
647 -944 -644 0
-647 944 0
-647 644 0
648 -48 -23 0
-648 48 0
-648 23 0
649 -648 -40 0
-649 648 0
-649 40 0
650 -945 -647 0
-650 945 0
-650 647 0
651 -38 -737 0
-651 38 0
-651 737 0
652 -651 -31 0
-652 651 0
-652 31 0
653 -946 -650 0
-653 946 0
-653 650 0
654 -752 -734 0
-654 752 0
-654 734 0
655 -654 -695 0
-655 654 0
-655 695 0
656 -947 -653 0
-656 947 0
-656 653 0
657 -49 -5 0
-657 49 0
-657 5 0
658 -657 -25 0
-658 657 0
-658 25 0
659 -948 -656 0
-659 948 0
-659 656 0
660 -717 -20 0
-660 717 0
-660 20 0
661 -660 -750 0
-661 660 0
-661 750 0
662 -949 -659 0
-662 949 0
-662 659 0
663 -26 -712 0
-663 26 0
-663 712 0
664 -663 -798 0
-664 663 0
-664 798 0
665 -950 -662 0
-665 950 0
-665 662 0
666 -30 -1 0
-666 30 0
-666 1 0
667 -666 -31 0
-667 666 0
-667 31 0
668 -951 -665 0
-668 951 0
-668 665 0
669 -353 -6 0
-669 353 0
-669 6 0
670 -952 -668 0
-670 952 0
-670 668 0
671 -49 -35 0
-671 49 0
-671 35 0
672 -671 -22 0
-672 671 0
-672 22 0
673 -953 -670 0
-673 953 0
-673 670 0
674 -511 -29 0
-674 511 0
-674 29 0
675 -954 -673 0
-675 954 0
-675 673 0
676 -35 -14 0
-676 35 0
-676 14 0
677 -676 -1 0
-677 676 0
-677 1 0
678 -955 -675 0
-678 955 0
-678 675 0
679 -757 -8 0
-679 757 0
-679 8 0
680 -679 -32 0
-680 679 0
-680 32 0
681 -956 -678 0
-681 956 0
-681 678 0
682 -377 -27 0
-682 377 0
-682 27 0
683 -957 -681 0
-683 957 0
-683 681 0
684 -8 -695 0
-684 8 0
-684 695 0
685 -684 -2 0
-685 684 0
-685 2 0
686 -958 -683 0
-686 958 0
-686 683 0
687 -29 -731 0
-687 29 0
-687 731 0
688 -687 -32 0
-688 687 0
-688 32 0
689 -959 -686 0
-689 959 0
-689 686 0
690 -18 -695 0
-690 18 0
-690 695 0
691 -690 -33 0
-691 690 0
-691 33 0
692 -960 -689 0
-692 960 0
-692 689 0
-693 -3 0
693 3 0
-694 -5 0
694 5 0
-695 -4 0
695 4 0
-696 -6 0
696 6 0
-697 -54 0
697 54 0
-698 -52 0
698 52 0
-699 -7 0
699 7 0
-700 -57 0
700 57 0
-701 -9 0
701 9 0
-702 -11 0
702 11 0
-703 -60 0
703 60 0
-704 -12 0
704 12 0
-705 -63 0
705 63 0
-706 -15 0
706 15 0
-707 -66 0
707 66 0
-708 -18 0
708 18 0
-709 -17 0
709 17 0
-710 -10 0
710 10 0
-711 -69 0
711 69 0
-712 -19 0
712 19 0
-713 -72 0
713 72 0
-714 -20 0
714 20 0
-715 -75 0
715 75 0
-716 -78 0
716 78 0
-717 -24 0
717 24 0
-718 -23 0
718 23 0
-719 -81 0
719 81 0
-720 -26 0
720 26 0
-721 -84 0
721 84 0
-722 -29 0
722 29 0
-723 -87 0
723 87 0
-724 -90 0
724 90 0
-725 -32 0
725 32 0
-726 -93 0
726 93 0
-727 -96 0
727 96 0
-728 -34 0
728 34 0
-729 -99 0
729 99 0
-730 -102 0
730 102 0
-731 -14 0
731 14 0
-732 -105 0
732 105 0
-733 -108 0
733 108 0
-734 -37 0
734 37 0
-735 -33 0
735 33 0
-736 -111 0
736 111 0
-737 -28 0
737 28 0
-738 -114 0
738 114 0
-739 -39 0
739 39 0
-740 -38 0
740 38 0
-741 -16 0
741 16 0
-742 -117 0
742 117 0
-743 -40 0
743 40 0
-744 -120 0
744 120 0
-745 -123 0
745 123 0
-746 -25 0
746 25 0
-747 -126 0
747 126 0
-748 -41 0
748 41 0
-749 -30 0
749 30 0
-750 -8 0
750 8 0
-751 -129 0
751 129 0
-752 -42 0
752 42 0
-753 -132 0
753 132 0
-754 -135 0
754 135 0
-755 -138 0
755 138 0
-756 -22 0
756 22 0
-757 -43 0
757 43 0
-758 -141 0
758 141 0
-759 -144 0
759 144 0
-760 -147 0
760 147 0
-761 -46 0
761 46 0
-762 -150 0
762 150 0
-763 -47 0
763 47 0
-764 -153 0
764 153 0
-765 -156 0
765 156 0
-766 -159 0
766 159 0
-767 -162 0
767 162 0
-768 -165 0
768 165 0
-769 -48 0
769 48 0
-770 -168 0
770 168 0
-771 -49 0
771 49 0
-772 -171 0
772 171 0
-773 -13 0
773 13 0
-774 -174 0
774 174 0
-775 -21 0
775 21 0
-776 -177 0
776 177 0
-777 -180 0
777 180 0
-778 -183 0
778 183 0
-779 -185 0
779 185 0
-780 -188 0
780 188 0
-781 -44 0
781 44 0
-782 -191 0
782 191 0
-783 -194 0
783 194 0
-784 -197 0
784 197 0
-785 -200 0
785 200 0
-786 -50 0
786 50 0
-787 -203 0
787 203 0
-788 -206 0
788 206 0
-789 -209 0
789 209 0
-790 -212 0
790 212 0
-791 -215 0
791 215 0
-792 -218 0
792 218 0
-793 -221 0
793 221 0
-794 -224 0
794 224 0
-795 -227 0
795 227 0
-796 -230 0
796 230 0
-797 -233 0
797 233 0
-798 -45 0
798 45 0
-799 -236 0
799 236 0
-800 -1 0
800 1 0
-801 -239 0
801 239 0
-802 -242 0
802 242 0
-803 -245 0
803 245 0
-804 -248 0
804 248 0
-805 -251 0
805 251 0
-806 -254 0
806 254 0
-807 -257 0
807 257 0
-808 -260 0
808 260 0
-809 -263 0
809 263 0
-810 -36 0
810 36 0
-811 -266 0
811 266 0
-812 -269 0
812 269 0
-813 -2 0
813 2 0
-814 -272 0
814 272 0
-815 -35 0
815 35 0
-816 -275 0
816 275 0
-817 -278 0
817 278 0
-818 -281 0
818 281 0
-819 -284 0
819 284 0
-820 -31 0
820 31 0
-821 -287 0
821 287 0
-822 -290 0
822 290 0
-823 -292 0
823 292 0
-824 -295 0
824 295 0
-825 -298 0
825 298 0
-826 -301 0
826 301 0
-827 -304 0
827 304 0
-828 -307 0
828 307 0
-829 -27 0
829 27 0
-830 -310 0
830 310 0
-831 -313 0
831 313 0
-832 -316 0
832 316 0
-833 -319 0
833 319 0
-834 -322 0
834 322 0
-835 -325 0
835 325 0
-836 -328 0
836 328 0
-837 -331 0
837 331 0
-838 -334 0
838 334 0
-839 -337 0
839 337 0
-840 -340 0
840 340 0
-841 -343 0
841 343 0
-842 -345 0
842 345 0
-843 -348 0
843 348 0
-844 -351 0
844 351 0
-845 -354 0
845 354 0
-846 -357 0
846 357 0
-847 -360 0
847 360 0
-848 -363 0
848 363 0
-849 -366 0
849 366 0
-850 -369 0
850 369 0
-851 -372 0
851 372 0
-852 -375 0
852 375 0
-853 -378 0
853 378 0
-854 -381 0
854 381 0
-855 -384 0
855 384 0
-856 -387 0
856 387 0
-857 -390 0
857 390 0
-858 -393 0
858 393 0
-859 -396 0
859 396 0
-860 -399 0
860 399 0
-861 -402 0
861 402 0
-862 -405 0
862 405 0
-863 -408 0
863 408 0
-864 -411 0
864 411 0
-865 -414 0
865 414 0
-866 -417 0
866 417 0
-867 -420 0
867 420 0
-868 -423 0
868 423 0
-869 -426 0
869 426 0
-870 -429 0
870 429 0
-871 -432 0
871 432 0
-872 -435 0
872 435 0
-873 -438 0
873 438 0
-874 -441 0
874 441 0
-875 -444 0
875 444 0
-876 -447 0
876 447 0
-877 -450 0
877 450 0
-878 -453 0
878 453 0
-879 -456 0
879 456 0
-880 -459 0
880 459 0
-881 -462 0
881 462 0
-882 -465 0
882 465 0
-883 -468 0
883 468 0
-884 -471 0
884 471 0
-885 -474 0
885 474 0
-886 -477 0
886 477 0
-887 -480 0
887 480 0
-888 -483 0
888 483 0
-889 -486 0
889 486 0
-890 -489 0
890 489 0
-891 -492 0
891 492 0
-892 -494 0
892 494 0
-893 -497 0
893 497 0
-894 -500 0
894 500 0
-895 -503 0
895 503 0
-896 -506 0
896 506 0
-897 -509 0
897 509 0
-898 -512 0
898 512 0
-899 -515 0
899 515 0
-900 -518 0
900 518 0
-901 -521 0
901 521 0
-902 -524 0
902 524 0
-903 -527 0
903 527 0
-904 -530 0
904 530 0
-905 -533 0
905 533 0
-906 -536 0
906 536 0
-907 -539 0
907 539 0
-908 -542 0
908 542 0
-909 -545 0
909 545 0
-910 -548 0
910 548 0
-911 -551 0
911 551 0
-912 -554 0
912 554 0
-913 -557 0
913 557 0
-914 -560 0
914 560 0
-915 -563 0
915 563 0
-916 -566 0
916 566 0
-917 -568 0
917 568 0
-918 -571 0
918 571 0
-919 -574 0
919 574 0
-920 -577 0
920 577 0
-921 -580 0
921 580 0
-922 -582 0
922 582 0
-923 -585 0
923 585 0
-924 -588 0
924 588 0
-925 -591 0
925 591 0
-926 -594 0
926 594 0
-927 -597 0
927 597 0
-928 -600 0
928 600 0
-929 -603 0
929 603 0
-930 -605 0
930 605 0
-931 -608 0
931 608 0
-932 -611 0
932 611 0
-933 -614 0
933 614 0
-934 -617 0
934 617 0
-935 -620 0
935 620 0
-936 -623 0
936 623 0
-937 -626 0
937 626 0
-938 -629 0
938 629 0
-939 -631 0
939 631 0
-940 -634 0
940 634 0
-941 -637 0
941 637 0
-942 -640 0
942 640 0
-943 -643 0
943 643 0
-944 -646 0
944 646 0
-945 -649 0
945 649 0
-946 -652 0
946 652 0
-947 -655 0
947 655 0
-948 -658 0
948 658 0
-949 -661 0
949 661 0
-950 -664 0
950 664 0
-951 -667 0
951 667 0
-952 -669 0
952 669 0
-953 -672 0
953 672 0
-954 -674 0
954 674 0
-955 -677 0
955 677 0
-956 -680 0
956 680 0
-957 -682 0
957 682 0
-958 -685 0
958 685 0
-959 -688 0
959 688 0
-960 -691 0
960 691 0
692 0
